\ Model prob_13
\ LP format - for model browsing. Use MPS format to capture full model detail.
Minimize
  4 Chicken + 8 Rice + 7 Broccoli + 10 Tofu + Beans
Subject To
 R0: 18 Chicken + 12 Rice + 13 Broccoli + 5 Tofu + 10 Beans >= 56
 R1: 6 Chicken + 28 Rice + 19 Broccoli + 16 Tofu + 20 Beans >= 194
 R2: 142 Chicken + 88 Rice + 137 Broccoli + 141 Tofu + 150 Beans >= 2012
Bounds
Generals
 Chicken Rice Broccoli Tofu Beans
End
